3 
4  45 
5  07 32 52 
6  11 25 40 54 
7  10 25 40 55 
8  10 25 40 54 
9  09 24 39 54 
10  09 24 39 54 
11  09 24 39 54 
12  09 24 39 55 
13  10 25 40 55 
14  10 25 41 56 
15  11 26 41 56 
16  11 26 41 56 
17  11 26 41 56 
18  11 26 41 56 
19  11 26 41 56 
20  12 26 41 56 
21  11 26 41 58 
22  12 28 52 
23 
0 
